NAME : rnd1_20.tsp
TYPE : TSP
DIMENSION : 20
EDGE_WEIGHT_TYPE : EUC_2D
NODE_COORD_SECTION
1 162 107
2 425 357
3 828 350
4 382 411
5 688 652
6 600 837
7 66 226
8 559 314
9 933 550
10 20 30
11 533 666
12 82 607
13 1 652
14 970 403
15 853 986
16 905 4
17 802 421
18 814 422
19 916 897
20 431 717
